[VALIDATOR STDOUT]
Checking plan: /home/jfan5/Safety-gen/runs/benchmark/optic/grid_20260205_143735/grid/optic_results/grid_x4_y4_sh2_k4_l4_s4001.plan
Plan to validate:

Plan size: 56
1:
(move pos1-0 pos2-0)
 
2:
(move pos2-0 pos2-1)
 
3:
(move pos2-1 pos1-1)
 
4:
(move pos1-1 pos0-1)
 
5:
(move pos0-1 pos0-0)
 
6:
(pickup pos0-0 key0)
 
7:
(move pos0-0 pos0-1)
 
8:
(move pos0-1 pos1-1)
 
9:
(unlock pos1-1 pos1-2 key0 shape0)
 
10:
(move pos1-1 pos1-2)
 
11:
(move pos1-2 pos1-3)
 
12:
(move pos1-3 pos2-3)
 
13:
(move pos2-3 pos3-3)
 
14:
(pickup-and-loose pos3-3 key3 key0)
 
15:
(move pos3-3 pos2-3)
 
16:
(unlock pos2-3 pos2-2 key3 shape1)
 
17:
(move pos2-3 pos1-3)
 
18:
(move pos1-3 pos1-2)
 
19:
(unlock pos1-2 pos0-2 key3 shape1)
 
20:
(move pos1-2 pos2-2)
 
21:
(move pos2-2 pos2-3)
 
22:
(move pos2-3 pos3-3)
 
23:
(putdown pos3-3 key3)
 
24:
(move pos3-3 pos2-3)
 
25:
(move pos2-3 pos2-2)
 
26:
(move pos2-2 pos2-1)
 
27:
(move pos2-1 pos2-0)
 
28:
(pickup pos2-0 key1)
 
29:
(move pos2-0 pos2-1)
 
30:
(move pos2-1 pos2-2)
 
31:
(putdown pos2-2 key1)
 
32:
(move pos2-2 pos2-3)
 
33:
(move pos2-3 pos1-3)
 
34:
(move pos1-3 pos0-3)
 
35:
(pickup pos0-3 key2)
 
36:
(move pos0-3 pos1-3)
 
37:
(move pos1-3 pos2-3)
 
38:
(move pos2-3 pos2-2)
 
39:
(move pos2-2 pos1-2)
 
40:
(putdown pos1-2 key2)
 
41:
(move pos1-2 pos2-2)
 
42:
(move pos2-2 pos2-3)
 
43:
(move pos2-3 pos3-3)
 
44:
(pickup pos3-3 key3)
 
45:
(pickup-and-loose pos3-3 key0 key3)
 
46:
(move pos3-3 pos2-3)
 
47:
(move pos2-3 pos2-2)
 
48:
(putdown pos2-2 key0)
 
49:
(move pos2-2 pos2-3)
 
50:
(move pos2-3 pos3-3)
 
51:
(pickup pos3-3 key3)
 
52:
(move pos3-3 pos2-3)
 
53:
(move pos2-3 pos1-3)
 
54:
(move pos1-3 pos0-3)
 
55:
(move pos0-3 pos0-2)
 
56:
(putdown pos0-2 key3)
 

Plan Validation details
-----------------------

Checking next happening (time 1)
Deleting (at-robot pos1-0)
Adding (at-robot pos2-0)

Checking next happening (time 2)
Deleting (at-robot pos2-0)
Adding (at-robot pos2-1)

Checking next happening (time 3)
Deleting (at-robot pos2-1)
Adding (at-robot pos1-1)

Checking next happening (time 4)
Deleting (at-robot pos1-1)
Adding (at-robot pos0-1)

Checking next happening (time 5)
Deleting (at-robot pos0-1)
Adding (at-robot pos0-0)

Checking next happening (time 6)
Deleting (at key0 pos0-0)
Deleting (arm-empty)
Adding (holding key0)

Checking next happening (time 7)
Deleting (at-robot pos0-0)
Adding (at-robot pos0-1)

Checking next happening (time 8)
Deleting (at-robot pos0-1)
Adding (at-robot pos1-1)

Checking next happening (time 9)
Deleting (locked pos1-2)
Adding (open pos1-2)

Checking next happening (time 10)
Deleting (at-robot pos1-1)
Adding (at-robot pos1-2)

Checking next happening (time 11)
Deleting (at-robot pos1-2)
Adding (at-robot pos1-3)

Checking next happening (time 12)
Deleting (at-robot pos1-3)
Adding (at-robot pos2-3)

Checking next happening (time 13)
Deleting (at-robot pos2-3)
Adding (at-robot pos3-3)

Checking next happening (time 14)
Deleting (holding key0)
Deleting (at key3 pos3-3)
Adding (holding key3)
Adding (at key0 pos3-3)

Checking next happening (time 15)
Deleting (at-robot pos3-3)
Adding (at-robot pos2-3)

Checking next happening (time 16)
Deleting (locked pos2-2)
Adding (open pos2-2)

Checking next happening (time 17)
Deleting (at-robot pos2-3)
Adding (at-robot pos1-3)

Checking next happening (time 18)
Deleting (at-robot pos1-3)
Adding (at-robot pos1-2)

Checking next happening (time 19)
Deleting (locked pos0-2)
Adding (open pos0-2)

Checking next happening (time 20)
Deleting (at-robot pos1-2)
Adding (at-robot pos2-2)

Checking next happening (time 21)
Deleting (at-robot pos2-2)
Adding (at-robot pos2-3)

Checking next happening (time 22)
Deleting (at-robot pos2-3)
Adding (at-robot pos3-3)

Checking next happening (time 23)
Deleting (holding key3)
Adding (arm-empty)
Adding (at key3 pos3-3)

Checking next happening (time 24)
Deleting (at-robot pos3-3)
Adding (at-robot pos2-3)

Checking next happening (time 25)
Deleting (at-robot pos2-3)
Adding (at-robot pos2-2)

Checking next happening (time 26)
Deleting (at-robot pos2-2)
Adding (at-robot pos2-1)

Checking next happening (time 27)
Deleting (at-robot pos2-1)
Adding (at-robot pos2-0)

Checking next happening (time 28)
Deleting (at key1 pos2-0)
Deleting (arm-empty)
Adding (holding key1)

Checking next happening (time 29)
Deleting (at-robot pos2-0)
Adding (at-robot pos2-1)

Checking next happening (time 30)
Deleting (at-robot pos2-1)
Adding (at-robot pos2-2)

Checking next happening (time 31)
Deleting (holding key1)
Adding (arm-empty)
Adding (at key1 pos2-2)

Checking next happening (time 32)
Deleting (at-robot pos2-2)
Adding (at-robot pos2-3)

Checking next happening (time 33)
Deleting (at-robot pos2-3)
Adding (at-robot pos1-3)

Checking next happening (time 34)
Deleting (at-robot pos1-3)
Adding (at-robot pos0-3)

Checking next happening (time 35)
Deleting (at key2 pos0-3)
Deleting (arm-empty)
Adding (holding key2)

Checking next happening (time 36)
Deleting (at-robot pos0-3)
Adding (at-robot pos1-3)

Checking next happening (time 37)
Deleting (at-robot pos1-3)
Adding (at-robot pos2-3)

Checking next happening (time 38)
Deleting (at-robot pos2-3)
Adding (at-robot pos2-2)

Checking next happening (time 39)
Deleting (at-robot pos2-2)
Adding (at-robot pos1-2)

Checking next happening (time 40)
Deleting (holding key2)
Adding (arm-empty)
Adding (at key2 pos1-2)

Checking next happening (time 41)
Deleting (at-robot pos1-2)
Adding (at-robot pos2-2)

Checking next happening (time 42)
Deleting (at-robot pos2-2)
Adding (at-robot pos2-3)

Checking next happening (time 43)
Deleting (at-robot pos2-3)
Adding (at-robot pos3-3)

Checking next happening (time 44)
Deleting (at key3 pos3-3)
Deleting (arm-empty)
Adding (holding key3)

Checking next happening (time 45)
Deleting (holding key3)
Deleting (at key0 pos3-3)
Adding (holding key0)
Adding (at key3 pos3-3)

Checking next happening (time 46)
Deleting (at-robot pos3-3)
Adding (at-robot pos2-3)

Checking next happening (time 47)
Deleting (at-robot pos2-3)
Adding (at-robot pos2-2)

Checking next happening (time 48)
Deleting (holding key0)
Adding (arm-empty)
Adding (at key0 pos2-2)

Checking next happening (time 49)
Deleting (at-robot pos2-2)
Adding (at-robot pos2-3)

Checking next happening (time 50)
Deleting (at-robot pos2-3)
Adding (at-robot pos3-3)

Checking next happening (time 51)
Deleting (at key3 pos3-3)
Deleting (arm-empty)
Adding (holding key3)

Checking next happening (time 52)
Deleting (at-robot pos3-3)
Adding (at-robot pos2-3)

Checking next happening (time 53)
Deleting (at-robot pos2-3)
Adding (at-robot pos1-3)

Checking next happening (time 54)
Deleting (at-robot pos1-3)
Adding (at-robot pos0-3)

Checking next happening (time 55)
Deleting (at-robot pos0-3)
Adding (at-robot pos0-2)

Checking next happening (time 56)
Deleting (holding key3)
Adding (arm-empty)
Adding (at key3 pos0-2)
Plan executed successfully - checking goal
Plan valid
Final value: 56 

Successful plans:
Value: 56
 /home/jfan5/Safety-gen/runs/benchmark/optic/grid_20260205_143735/grid/optic_results/grid_x4_y4_sh2_k4_l4_s4001.plan 56
